Rutile TiO2                             
   1.00000000000000     
     4.5839999999999996    0.0000000000000000    0.0000000000000000
     0.0000000000000000    4.5839999999999996    0.0000000000000000
     0.0000000000000000    0.0000000000000000    2.9529999999999998
   Ti   O 
     2     4
Direct
  0.0000000000000000  0.0000000000000000  0.0000000000000000
  0.5000000000000000  0.5000000000000000  0.5000000000000000
  0.1962093294680187  0.8037906705319813  0.5000000000000000
  0.8037906705319813  0.1962093294680187  0.5000000000000000
  0.3037906705319813  0.3037906705319813  0.0000000000000000
  0.6962093294680187  0.6962093294680187  0.0000000000000000
 
  0.00000000E+00  0.00000000E+00  0.00000000E+00
  0.00000000E+00  0.00000000E+00  0.00000000E+00
  0.00000000E+00  0.00000000E+00  0.00000000E+00
  0.00000000E+00  0.00000000E+00  0.00000000E+00
  0.00000000E+00  0.00000000E+00  0.00000000E+00
  0.00000000E+00  0.00000000E+00  0.00000000E+00
