SYSTEM=TiO2

ISTART = 1      # start from WAVECAR
ICHARG  = 11     # non-selfconsistent
ISMEAR = 0      # gaussian
SIGMA = 0.01

LOUT = 10       # DOSCAR and PROCAR
LCHARGE.false
LWAVE.false

# lattice relaxation
ENCUT = 460     # from convergence
EDIFF = 0.1E-04

