Automatic mesh      # first line used as comment
0                   # 0 stands for automatically generated
Monkhorst Pack      # generation method
 11 11 11           # number of k-points in each direction
 0  0  0            # optional shift of the mesh