Rutile TiO2
1.000
    4.584 0.000 0.000
    0.000 4.584 0.000
    0.000 0.000 2.953
Ti O
2 4
Direct
    0.00000000 0.0000000 0.00000000     # Ti
    0.50000000 0.5000000 0.50000000     # Ti
    0.19542000 0.80458000 0.5000000     # O
    0.80458000 0.19542000 0.5000000     # O
    0.30458000 0.30458000 0.0000000     # O
    0.69542000 0.69542000 0.0000000     # O