SYSTEM=TiO2

ISTART = 1      # start from WAVECAR
ICHARG  = 0     # charge from superposition of individual charges
ISMEAR = 0      # gaussian
SIGMA = 0.01

LOUT = 10       # DOSCAR and PROCAR
LCHARGE.true
LWAVE.true

# lattice relaxation
ENCUT = 460     # from convergence
EDIFF = 0.1E-04

