Rutile TiO2                             
   1.00000000000000     
     4.5839999999999996    0.0000000000000000    0.0000000000000000
     0.0000000000000000    4.5839999999999996    0.0000000000000000
     0.0000000000000000    0.0000000000000000    2.9529999999999998
   Ti   O 
     2     4
Direct
  0.0000000000000000 -0.0000000000000000  0.0000000000000000
  0.5000000000000000  0.5000000000000000  0.5000000000000000
  0.1962368617989621  0.8037631382010380  0.5000000000000000
  0.8037631382010380  0.1962368617989621  0.5000000000000000
  0.3037631382010380  0.3037631382010380 -0.0000000000000000
  0.6962368617989620  0.6962368617989620 -0.0000000000000000
 
  0.00000000E+00  0.00000000E+00  0.00000000E+00
  0.00000000E+00  0.00000000E+00  0.00000000E+00
  0.00000000E+00  0.00000000E+00  0.00000000E+00
  0.00000000E+00  0.00000000E+00  0.00000000E+00
  0.00000000E+00  0.00000000E+00  0.00000000E+00
  0.00000000E+00  0.00000000E+00  0.00000000E+00
