SYSTEM=TiO2

ISTART = 0      # start from scratch
ICHARGE = 2     # charge from superposition of individual charges
ISMEAR = 0      # gaussian
SIGMA = 0.01

LOUT = 10       # DOSCAR and PROCAR
LCHARGE.false
LWAVE.false

# lattice relaxation
ENCUT = 500     # 1.3*POTCAR
EDIFF = 0.1E-04
EDIFFG = -0.01  # force to stop the loop
IBRION = 1      # perform the relaxation
ISIF = 0        # modify positions, don't calculate stress tensor
NSW = 15        # maximum number of iterations
