Rutile TiO2                             
1.0
       13.7520008087         0.0000000000         0.0000000000
        0.0000000000        13.7520008087         0.0000000000
        0.0000000000         0.0000000000         8.8590002060
   Ti    O
   54  108
Direct
     0.000000000         0.000000000         0.000000000
     0.000000000         0.000000000         0.333333343
     0.000000000         0.000000000         0.666666687
     0.000000000         0.333333343         0.000000000
     0.000000000         0.333333343         0.333333343
     0.000000000         0.333333343         0.666666687
     0.000000000         0.666666687         0.000000000
     0.000000000         0.666666687         0.333333343
     0.000000000         0.666666687         0.666666687
     0.333333343         0.000000000         0.000000000
     0.333333343         0.000000000         0.333333343
     0.333333343         0.000000000         0.666666687
     0.333333343         0.333333343         0.000000000
     0.333333343         0.333333343         0.333333343
     0.333333343         0.333333343         0.666666687
     0.333333343         0.666666687         0.000000000
     0.333333343         0.666666687         0.333333343
     0.333333343         0.666666687         0.666666687
     0.666666687         0.000000000         0.000000000
     0.666666687         0.000000000         0.333333343
     0.666666687         0.000000000         0.666666687
     0.666666687         0.333333343         0.000000000
     0.666666687         0.333333343         0.333333343
     0.666666687         0.333333343         0.666666687
     0.666666687         0.666666687         0.000000000
     0.666666687         0.666666687         0.333333343
     0.666666687         0.666666687         0.666666687
     0.166666672         0.166666672         0.166666672
     0.166666672         0.166666672         0.500000000
     0.166666672         0.166666672         0.833333313
     0.166666672         0.500000000         0.166666672
     0.166666672         0.500000000         0.500000000
     0.166666672         0.500000000         0.833333313
     0.166666672         0.833333313         0.166666672
     0.166666672         0.833333313         0.500000000
     0.166666672         0.833333313         0.833333313
     0.500000000         0.166666672         0.166666672
     0.500000000         0.166666672         0.500000000
     0.500000000         0.166666672         0.833333313
     0.500000000         0.500000000         0.166666672
     0.500000000         0.500000000         0.500000000
     0.500000000         0.500000000         0.833333313
     0.500000000         0.833333313         0.166666672
     0.500000000         0.833333313         0.500000000
     0.500000000         0.833333313         0.833333313
     0.833333313         0.166666672         0.166666672
     0.833333313         0.166666672         0.500000000
     0.833333313         0.166666672         0.833333313
     0.833333313         0.500000000         0.166666672
     0.833333313         0.500000000         0.500000000
     0.833333313         0.500000000         0.833333313
     0.833333313         0.833333313         0.166666672
     0.833333313         0.833333313         0.500000000
     0.833333313         0.833333313         0.833333313
     0.065412290         0.267921060         0.166666672
     0.065412290         0.267921060         0.500000000
     0.065412290         0.267921060         0.833333313
     0.065412290         0.601254404         0.166666672
     0.065412290         0.601254404         0.500000000
     0.065412290         0.601254404         0.833333313
     0.065412290         0.934587717         0.166666672
     0.065412290         0.934587717         0.500000000
     0.065412290         0.934587717         0.833333313
     0.398745626         0.267921060         0.166666672
     0.398745626         0.267921060         0.500000000
     0.398745626         0.267921060         0.833333313
     0.398745626         0.601254404         0.166666672
     0.398745626         0.601254404         0.500000000
     0.398745626         0.601254404         0.833333313
     0.398745626         0.934587717         0.166666672
     0.398745626         0.934587717         0.500000000
     0.398745626         0.934587717         0.833333313
     0.732078969         0.267921060         0.166666672
     0.732078969         0.267921060         0.500000000
     0.732078969         0.267921060         0.833333313
     0.732078969         0.601254404         0.166666672
     0.732078969         0.601254404         0.500000000
     0.732078969         0.601254404         0.833333313
     0.732078969         0.934587717         0.166666672
     0.732078969         0.934587717         0.500000000
     0.732078969         0.934587717         0.833333313
     0.267921060         0.065412290         0.166666672
     0.267921060         0.065412290         0.500000000
     0.267921060         0.065412290         0.833333313
     0.267921060         0.398745626         0.166666672
     0.267921060         0.398745626         0.500000000
     0.267921060         0.398745626         0.833333313
     0.267921060         0.732078969         0.166666672
     0.267921060         0.732078969         0.500000000
     0.267921060         0.732078969         0.833333313
     0.601254404         0.065412290         0.166666672
     0.601254404         0.065412290         0.500000000
     0.601254404         0.065412290         0.833333313
     0.601254404         0.398745626         0.166666672
     0.601254404         0.398745626         0.500000000
     0.601254404         0.398745626         0.833333313
     0.601254404         0.732078969         0.166666672
     0.601254404         0.732078969         0.500000000
     0.601254404         0.732078969         0.833333313
     0.934587717         0.065412290         0.166666672
     0.934587717         0.065412290         0.500000000
     0.934587717         0.065412290         0.833333313
     0.934587717         0.398745626         0.166666672
     0.934587717         0.398745626         0.500000000
     0.934587717         0.398745626         0.833333313
     0.934587717         0.732078969         0.166666672
     0.934587717         0.732078969         0.500000000
     0.934587717         0.732078969         0.833333313
     0.101254381         0.101254381         0.000000000
     0.101254381         0.101254381         0.333333343
     0.101254381         0.101254381         0.666666687
     0.101254381         0.434587717         0.000000000
     0.101254381         0.434587717         0.333333343
     0.101254381         0.434587717         0.666666687
     0.101254381         0.767921031         0.000000000
     0.101254381         0.767921031         0.333333343
     0.101254381         0.767921031         0.666666687
     0.434587717         0.101254381         0.000000000
     0.434587717         0.101254381         0.333333343
     0.434587717         0.101254381         0.666666687
     0.434587717         0.434587717         0.000000000
     0.434587717         0.434587717         0.333333343
     0.434587717         0.434587717         0.666666687
     0.434587717         0.767921031         0.000000000
     0.434587717         0.767921031         0.333333343
     0.434587717         0.767921031         0.666666687
     0.767921031         0.101254381         0.000000000
     0.767921031         0.101254381         0.333333343
     0.767921031         0.101254381         0.666666687
     0.767921031         0.434587717         0.000000000
     0.767921031         0.434587717         0.333333343
     0.767921031         0.434587717         0.666666687
     0.767921031         0.767921031         0.000000000
     0.767921031         0.767921031         0.333333343
     0.767921031         0.767921031         0.666666687
     0.232078955         0.232078955         0.000000000
     0.232078955         0.232078955         0.333333343
     0.232078955         0.232078955         0.666666687
     0.232078955         0.565412283         0.000000000
     0.232078955         0.565412283         0.333333343
     0.232078955         0.565412283         0.666666687
     0.232078955         0.898745596         0.000000000
     0.232078955         0.898745596         0.333333343
     0.232078955         0.898745596         0.666666687
     0.565412283         0.232078955         0.000000000
     0.565412283         0.232078955         0.333333343
     0.565412283         0.232078955         0.666666687
     0.565412283         0.565412283         0.000000000
     0.565412283         0.565412283         0.333333343
     0.565412283         0.565412283         0.666666687
     0.565412283         0.898745596         0.000000000
     0.565412283         0.898745596         0.333333343
     0.565412283         0.898745596         0.666666687
     0.898745596         0.232078955         0.000000000
     0.898745596         0.232078955         0.333333343
     0.898745596         0.232078955         0.666666687
     0.898745596         0.565412283         0.000000000
     0.898745596         0.565412283         0.333333343
     0.898745596         0.565412283         0.666666687
     0.898745596         0.898745596         0.000000000
     0.898745596         0.898745596         0.333333343
     0.898745596         0.898745596         0.666666687